data/solutions/recovery/wellformed/moderate/binding/wellformed_moderate_instance11/50.sol
Elapsed time: 0.01
Upper bound: 11205.0
Planning weighted value: 75228.0
C[0]=11205.0
C[1]=11186.0
C[2]=11081.0
y[0]=2
y[1]=2
y[2]=0
y[3]=1
y[4]=1
y[5]=0
y[6]=2
y[7]=2
y[8]=0
y[9]=1
y[10]=1
y[11]=0
y[12]=2
y[13]=0
y[14]=1
y[15]=1
y[16]=0
y[17]=1
y[18]=2
y[19]=1
y[20]=1
y[21]=1
y[22]=2
y[23]=0
y[24]=1
y[25]=2
y[26]=2
y[27]=0
y[28]=1
y[29]=1
y[30]=2
y[31]=1
y[32]=1
